NAME : local_9
TYPE : ATSP
DIMENSION : 7
EDGE_WEIGHT_TYPE : EXPLICIT
EDGE_WEIGHT_FORMAT : FULL_MATRIX
EDGE_WEIGHT_SECTION
0 560 183 837 1284 681 309 
0 0 707 380 1004 10000000 730 
0 707 0 999 10000000 627 413 
0 380 1045 0 743 10000000 10000000 
0 986 10000000 732 0 711 10000000 
0 10000000 627 10000000 711 0 716 
0 10000000 10000000 10000000 10000000 10000000 0 
EOF